99 2201
7 12 14 16 17 18 19 20 21 22 25 26 27 30 31 33 38 43 46 47 48 52 56 57 58 61 62 65 68 69 72 75 77 78 81 82 83 84 91 92 93 94
4 5 8 11 12 13 14 15 19 20 24 28 31 32 33 35 37 41 42 47 49 50 51 54 56 59 66 67 70 77 80 83 84 85 89 91 92 93 95
4 9 10 12 19 20 21 22 26 27 30 31 32 33 37 40 41 43 49 51 52 53 54 55 58 61 62 63 64 65 67 69 71 73 79 85 88 89 90 91 92 97
4 5 7 8 9 11 12 14 15 17 18 23 24 25 26 27 29 33 37 39 41 44 45 51 52 58 59 60 61 64 67 70 72 73 75 76 77 78 80 81 82 84 87 88 93 94 95 97 98
1 2 3 6 7 9 12 16 21 23 28 30 31 32 33 34 36 38 40 41 43 44 45 46 47 50 59 62 64 65 66 67 73 74 75 77 78 82 83 84 85 87 88 89 90 93
1 3 6 9 15 16 19 20 21 22 23 29 32 36 40 41 45 46 50 51 52 54 56 57 59 60 64 65 67 68 70 72 75 76 79 81 83 84 86 87 89 92 93 94 98
4 5 8 9 13 14 19 23 24 28 31 35 36 38 39 40 41 43 45 46 53 54 55 56 57 62 64 67 69 70 71 72 73 76 77 82 83 85 87 88 90 91 92 97 98
0 3 4 11 13 17 18 19 21 22 23 25 26 28 34 39 41 42 46 47 49 52 55 56 58 61 62 64 67 68 69 70 72 73 75 76 78 79 80 81 82 83 84 85 88 89 90 91 95 96 97
1 3 6 12 13 14 16 22 23 24 26 27 29 33 34 37 39 40 43 46 47 49 50 52 53 54 56 57 60 61 62 67 70 71 72 77 78 79 86 87 89 90 91 92 95 97
2 3 4 5 6 10 13 14 15 17 18 19 22 23 25 26 27 28 29 30 32 34 35 37 38 39 40 43 46 47 49 53 58 60 62 63 65 69 70 71 76 78 79 80 85 88 93 95 96 98
2 9 12 14 15 21 22 23 26 27 30 35 38 39 40 42 45 47 51 52 54 55 57 58 61 63 64 68 69 70 72 74 75 76 77 78 79 80 91 92 93 95
1 3 7 12 14 15 16 19 23 26 27 29 31 32 36 46 51 52 53 55 58 59 60 61 62 64 66 69 70 72 74 77 78 79 81 82 83 85 86 89 91 92 93 94 96
0 1 2 3 4 8 10 11 14 15 16 17 21 23 26 30 31 32 36 37 39 43 44 45 46 54 56 59 61 62 64 66 67 72 75 81 82 83 85 87 90 91 95 98
1 6 7 8 9 14 17 18 19 20 23 25 26 27 28 30 31 35 42 43 44 45 46 52 53 55 57 58 61 63 64 65 67 68 70 71 72 80 81 83 84 87 88 93 94 97 98
0 1 3 6 8 9 10 11 12 13 17 18 20 23 24 27 30 38 40 41 44 46 51 52 57 58 60 62 67 68 69 70 74 75 78 81 84 86 87 89 90 91 93 94 97 98
1 3 5 9 10 11 12 16 21 28 30 31 32 33 35 36 41 46 47 49 53 55 56 57 64 65 66 70 73 75 76 79 83 84 87 88 89 90 91 97 98
0 4 5 8 11 12 15 19 21 22 23 25 26 31 34 35 37 39 40 41 43 44 45 48 50 51 53 55 57 58 60 62 69 72 73 75 80 81 82 83 84 85 87 90 91 92 93 94 95
0 3 7 9 12 13 14 20 21 25 27 29 30 32 34 35 40 43 45 48 50 51 52 54 55 57 58 61 63 64 65 67 68 70 71 72 73 74 76 78 79 80 82 84 87 91 93 94 97
0 3 7 9 13 14 20 21 23 24 27 29 31 34 36 38 42 43 45 46 51 53 55 57 60 61 62 65 67 69 70 71 72 76 77 78 86 87 89 91 92 95
0 1 2 5 6 7 9 11 13 16 23 29 33 34 37 39 42 52 53 54 55 57 61 62 65 66 67 68 69 71 73 75 76 78 79 82 84 86 88 90 91 94 95 96 97 98
0 1 2 5 13 14 17 18 22 23 24 25 26 29 34 35 39 40 43 45 46 49 50 51 52 53 58 59 63 64 65 66 67 70 72 75 78 82 86 89 90 91 92 93 98
0 2 4 5 7 10 12 15 16 17 18 22 24 27 28 29 30 31 36 39 43 45 46 54 56 58 59 66 71 72 76 81 82 84 85 88 90 94 96 98
0 2 5 7 8 9 10 16 20 21 23 26 27 29 30 31 32 34 38 40 42 43 44 47 50 54 55 56 57 58 59 60 63 66 69 77 79 80 81 82 84 90 93 98
3 4 5 6 7 8 9 10 11 12 13 14 16 18 19 20 22 24 27 28 29 31 32 33 38 41 46 47 52 53 54 56 58 61 62 64 65 66 68 72 76 80 85 87 91 92 94 96 97
1 3 6 8 14 18 20 21 23 25 26 27 30 31 32 35 36 38 41 45 49 50 51 53 55 56 58 59 60 62 67 72 75 79 81 84 85 86 87 88 93 94 96 98
0 3 7 9 13 16 17 20 24 26 27 31 33 34 36 38 42 43 45 46 49 50 55 57 60 63 66 67 70 73 76 78 84 85 86 89 90 91 92 95 96 98
0 2 3 7 8 9 10 11 12 13 16 20 22 24 25 28 34 35 36 38 40 44 52 53 57 61 63 64 65 66 67 69 70 74 79 81 83 85 87 88 89 90 91 92 93
0 2 3 8 9 10 11 13 14 17 18 21 22 23 24 25 30 31 32 33 36 37 40 41 43 45 47 48 50 54 55 57 61 63 65 66 67 68 69 70 73 74 75 76 78 80 82 83 86 88 92 93 94 95 96 98
1 4 6 7 9 13 15 21 23 26 32 33 36 38 39 40 41 42 43 46 48 55 57 60 61 62 64 66 67 71 73 76 77 80 81 82 86 88 91 92 93
3 5 8 9 11 17 18 19 20 21 22 23 30 31 34 36 38 41 42 43 44 47 50 52 53 54 56 57 59 60 64 65 67 69 73 74 75 76 77 79 81 83 85 87 91 92 94 95 97
0 2 4 9 10 12 13 14 15 17 21 22 24 27 29 31 32 37 38 39 40 42 47 49 53 55 57 60 63 64 67 69 72 74 76 79 83 84 90 97 98
0 1 2 4 6 11 12 13 15 16 18 21 22 23 24 25 27 29 30 34 35 36 42 43 44 49 50 53 57 59 61 62 64 65 67 68 72 73 74 76 82 87 90 91 92 93 97
1 2 4 5 9 11 12 15 17 22 23 24 27 28 30 35 36 37 40 43 44 53 65 73 75 76 77 79 82 83 86 88 90 93 95
0 1 2 3 4 8 15 19 23 25 27 28 34 36 37 41 44 48 49 52 55 57 64 66 67 71 73 76 77 78 79 80 81 84 86 87 91 92 93 94 95 97 98
4 7 8 9 16 17 18 19 20 22 25 26 29 31 33 35 37 40 41 45 47 49 50 51 52 53 58 60 61 64 65 66 73 74 75 78 80 82 83 85 87 92 95 96 98
1 6 9 10 13 15 16 17 20 24 26 31 32 34 36 37 39 40 41 43 44 45 46 47 51 54 56 58 59 60 62 64 65 67 68 69 70 73 76 78 79 80 81 82 83 85 86 91 92 95 97 98
4 5 6 11 12 15 18 21 24 25 26 27 28 29 31 32 33 35 37 41 47 48 49 50 51 52 53 56 57 61 63 65 67 69 71 72 78 79 80 86 87 91 92 93 95 96 98
1 2 3 8 9 12 16 19 27 30 32 33 34 35 36 46 50 53 55 56 59 62 63 64 66 67 69 73 80 83 84 86 88 89 90 91 97
0 4 6 9 10 14 18 22 23 24 25 26 28 29 30 40 41 44 47 48 49 50 51 54 55 56 58 63 66 67 75 80 81 82 83 84 85 86 89 90 92 96 98
3 6 7 8 9 10 12 16 19 20 21 28 30 35 41 42 45 48 49 50 51 53 55 61 68 69 74 75 78 79 84 85 86 87 88 89 91 92 96
2 4 5 6 8 9 10 14 16 17 20 22 26 27 28 30 32 34 35 38 41 43 45 46 47 54 55 56 57 63 64 67 69 71 76 77 83 84 85 86 90 91 92 95 96 98
1 2 3 4 5 6 7 14 15 16 23 24 27 28 29 33 34 35 36 38 39 40 42 46 47 50 54 57 58 60 63 73 81 82 87 88 90 91 92 93 97 98
1 7 10 13 18 19 22 25 28 29 30 31 39 41 43 47 48 52 55 56 58 59 61 62 64 67 68 73 75 76 81 83 84 85 86 87 89 93 94 96 98
0 2 4 6 8 9 12 13 16 17 18 20 21 22 25 27 28 29 31 32 35 40 42 47 48 50 51 53 55 56 57 58 59 63 65 66 67 68 69 70 71 72 73 77 79 80 81 83 86 87 88 89 92 93 96 98
3 4 12 13 14 16 22 26 29 31 32 33 35 38 45 47 48 49 53 54 55 60 63 64 66 72 74 75 76 78 83 84 85 86 87 89 90 95 97
3 4 5 6 10 12 13 16 17 18 20 21 24 25 27 34 35 39 40 44 47 49 50 54 56 64 65 66 71 72 73 74 79 81 82 83 89 90 95 96 97 98
0 4 5 6 7 8 9 11 12 13 14 15 18 20 21 23 25 28 35 37 40 41 47 48 50 52 54 58 59 63 64 65 67 68 69 72 75 78 84 85 88 91 92 93 98
0 1 4 7 8 9 10 15 22 23 27 29 30 34 35 36 38 40 41 42 43 44 45 46 49 50 52 54 55 56 61 63 69 72 73 76 79 85 87 89 91 94 97
0 16 17 27 28 33 36 38 39 42 43 44 46 51 53 54 57 59 61 62 65 66 68 70 71 72 76 82 86 87 89 90 95 97
1 2 7 8 9 15 20 24 25 30 31 33 34 36 38 39 44 45 47 54 59 62 67 68 69 70 73 79 80 83 84 85 87 88 89 91 94 95
1 4 5 8 16 17 20 22 24 25 27 29 31 34 36 37 38 39 41 43 45 46 47 55 56 58 59 60 69 70 71 72 73 74 75 77 79 81 86 90 91 92 93 94 95 96 98
1 2 3 5 10 11 14 16 17 18 20 24 34 35 36 38 39 43 48 52 53 55 56 59 60 62 63 65 66 70 75 77 78 80 81 83 87 88 91 94
0 2 3 5 7 8 10 11 13 14 17 19 20 23 26 29 33 34 36 42 46 47 51 55 59 60 61 64 67 70 71 73 76 80 81 82 85 86 87 89 90 93 94
2 6 8 9 11 13 15 16 18 19 20 23 24 26 29 30 31 32 34 36 37 39 43 44 48 51 56 57 58 59 63 66 67 74 76 81 87 90 91 94 95 96 97
1 2 5 6 8 10 12 17 19 21 22 23 27 29 35 38 40 41 44 45 46 47 48 49 56 59 62 64 65 67 71 73 75 76 77 78 81 87 91 92 94
2 6 7 10 11 13 15 16 17 18 19 22 24 25 27 28 30 33 37 38 39 40 42 43 44 47 50 51 52 58 60 61 65 66 67 69 73 74 75 76 78 80 81 83 85 86 87 89 90 94 97
0 1 5 6 7 8 12 15 21 22 23 24 29 35 36 37 38 40 42 43 45 47 50 51 53 54 58 60 63 64 65 66 67 71 72 74 76 77 79 81 83 85 91 93 94 95 96 97 98
0 5 6 8 10 13 14 15 16 17 18 19 22 25 26 27 28 29 30 31 33 36 40 41 43 48 53 63 65 66 67 69 75 76 77 80 81 83 84 86 89 94 95 97 98
0 2 3 7 9 10 11 13 14 16 17 20 21 22 23 24 34 35 38 41 42 43 46 50 53 55 56 64 65 66 68 73 78 79 81 83 90 91 96 97
1 3 4 5 11 12 20 21 22 24 29 31 35 37 42 43 46 48 49 50 51 52 53 54 61 62 63 65 68 69 70 71 72 74 76 78 82 83 84 85 86 87 89 91 93 96
3 5 8 9 11 14 16 18 22 24 25 28 29 30 34 35 41 44 50 51 52 55 56 64 73 76 82 85 86 87 88 89 90 95
0 2 3 7 8 10 11 12 13 17 18 19 23 26 27 28 31 34 36 39 42 47 48 52 55 59 63 71 73 74 81 82 95 98
0 2 4 6 7 8 9 11 12 14 16 18 19 23 24 28 31 35 37 42 48 49 51 54 59 65 66 67 68 70 71 72 77 78 79 80 81 83 84 85 87 88 89 91 93 96 97
2 9 10 13 17 20 22 25 26 27 30 36 37 38 40 41 43 44 46 47 51 53 56 57 59 61 64 69 70 71 72 74 79 83 84 85 86 87 89 91 92 93 95 98
2 3 4 5 6 7 10 11 12 13 15 17 20 23 26 28 29 30 31 33 34 35 37 40 42 44 45 46 52 54 56 58 60 63 65 66 69 70 71 72 73 75 77 80 81 82 83 85 86 88 89 90 91 93 95 96 98
0 2 4 5 9 13 15 17 18 19 20 23 26 27 29 31 32 34 35 36 43 45 46 48 51 54 55 56 57 58 59 62 64 66 68 74 77 79 84 86 88 90 91 93 98
1 4 11 12 15 19 20 21 22 23 25 26 27 28 33 34 37 38 43 44 45 48 51 53 55 56 57 58 62 64 65 67 68 71 72 76 81 82 83 84 86 88 89 91 94 98
1 2 3 4 5 6 7 8 12 13 14 17 18 19 20 24 25 26 27 28 29 30 31 33 35 36 37 38 40 42 43 46 49 52 53 54 55 56 57 62 66 72 73 75 76 78 79 80 81 87 92 95 96 97
0 5 7 10 13 14 17 19 23 27 31 35 39 42 43 46 48 49 58 59 62 65 66 69 70 76 78 79 80 82 83 85 87 88 90 93
0 2 6 7 9 10 11 14 16 18 19 22 26 27 29 30 35 36 37 39 40 43 46 47 49 50 55 57 59 63 64 68 70 72 74 76 78 83 84 86 87 88 89 94 95
1 3 5 6 7 8 9 10 11 13 14 15 17 18 20 25 26 27 35 43 48 49 50 51 52 59 62 63 64 68 69 75 78 79 81 82 85 88 89 92 93 94 96
2 6 8 9 13 17 18 19 21 28 33 36 40 43 45 48 50 52 54 56 59 61 62 63 64 66 72 73 77 78 79 85 87 88 89 92 96
0 3 5 6 7 8 10 11 12 13 16 17 18 20 21 23 24 30 31 36 43 44 45 46 47 48 50 56 59 62 63 64 66 67 69 71 73 74 75 78 79 81 82 83 84 88 89 90 92 93 95 96 97
2 3 4 6 7 15 16 17 19 25 27 28 29 31 32 33 34 35 37 41 42 43 45 47 49 50 52 54 55 58 60 61 64 67 71 72 74 76 78 80 82 83 84 89 90 93 96 97 98
4 10 11 14 17 26 27 29 30 31 34 39 44 45 50 53 55 56 59 61 63 65 69 72 73 77 81 83 84 85 88 90 92 93 95
0 3 4 5 7 10 12 14 15 16 19 20 24 27 29 32 34 38 39 42 44 46 50 51 54 55 57 64 67 70 72 79 81 87 88 95 96
3 5 6 7 9 10 15 17 18 19 21 23 25 27 28 29 30 31 32 33 35 40 42 44 47 48 52 53 54 55 56 57 59 60 66 67 68 69 73 78 79 80 83 84 90 93 94 97 98
0 1 3 4 6 8 10 11 18 22 28 29 32 33 40 43 50 51 54 56 57 62 64 65 71 74 79 81 83 86 87 88 89 91 92 97
0 3 4 7 8 9 10 11 14 17 18 19 20 25 27 33 34 35 36 39 44 46 51 54 55 58 59 62 67 68 69 70 71 72 73 76 81 84 85 88 90 91 92 94 95 96
2 5 7 8 9 10 11 15 17 19 22 24 26 29 30 32 33 35 36 39 43 45 47 49 50 56 58 62 63 65 67 68 70 71 72 75 76 77 80 81 83 86 87 88 90 91 94 96
1 3 7 9 10 13 16 17 22 23 27 28 33 34 35 36 37 38 43 49 51 52 55 57 62 64 67 68 73 76 79 83 84 85 86 87 88 92 93
0 3 5 7 11 12 13 14 16 21 22 24 26 28 29 33 35 38 41 42 43 45 50 51 52 53 54 55 56 57 58 61 62 64 66 67 70 72 74 75 77 78 79 85 86 87 89 91 93 94 96 97
0 3 4 6 7 11 12 16 17 19 20 21 22 27 28 31 32 34 35 38 41 45 48 52 59 60 61 64 66 68 70 72 73 83 84 85 88 89 91 96 97 98
0 1 4 5 6 7 11 12 13 15 16 26 27 29 30 32 34 35 37 38 40 42 43 44 45 49 51 55 56 57 58 59 62 63 64 66 68 69 72 73 74 76 77 79 80 82 87 91 95 96 98
0 1 3 4 5 7 13 14 15 16 17 19 21 22 24 25 30 33 37 38 39 40 42 44 46 49 57 59 62 63 65 66 69 72 73 74 76 78 80 82 86 91 92 93 94 95 97
1 2 4 6 7 9 11 12 16 21 23 24 25 26 29 34 35 38 39 40 42 44 46 47 49 52 55 56 59 60 62 63 64 68 70 71 74 78 80 81 82 86 89 92 94 95 96
5 8 11 14 18 19 20 24 25 27 28 32 33 35 36 37 38 39 40 42 43 44 48 50 52 55 57 59 60 63 64 65 66 69 77 79 80 81 84 85 87 88 89 96
3 4 5 6 8 12 13 14 15 16 17 18 23 24 26 29 31 33 34 36 39 41 42 43 44 47 48 49 51 52 53 54 55 59 60 62 63 67 68 69 71 75 77 79 80 81 83 86 89 92 93 94 95 97
2 3 4 6 7 9 13 15 19 21 24 26 27 28 32 37 39 41 43 46 49 51 60 62 64 65 66 68 69 70 71 72 74 75 77 78 79 80 82 86 90 93 94
1 2 4 5 7 8 11 14 15 18 20 25 26 37 38 39 42 43 44 45 47 48 49 52 55 57 59 60 62 63 64 66 69 70 71 72 73 77 81 82 85 86 87 92
2 4 6 7 8 12 14 15 16 19 20 21 22 25 26 30 31 32 37 38 40 41 44 45 48 50 52 53 55 58 60 64 65 68 72 73 74 76 78 79 88 92 93 95 96
0 1 2 6 7 8 10 11 12 14 15 16 17 18 19 20 23 25 26 28 29 31 33 35 36 37 39 40 41 46 47 49 50 51 53 54 56 58 59 62 63 64 65 66 77 78 79 81 82 83 84 93 95 96 97
0 1 2 5 6 8 10 11 16 18 20 23 25 26 27 28 29 31 33 34 35 36 38 39 40 41 43 46 50 54 63 67 70 71 72 74 77 78 80 84 85 87 89 90 93 98
0 1 3 4 5 9 10 11 13 14 16 17 20 22 24 26 27 28 31 32 33 36 41 42 43 46 50 52 56 59 62 63 64 65 68 70 72 73 74 76 80 81 84 87 88 90 91 92 94 97 98
0 3 5 11 13 14 16 17 19 21 23 24 27 29 33 42 47 49 50 51 52 53 54 55 56 57 66 69 70 76 78 79 81 84 85 87 88 93 98
1 3 7 8 9 10 12 16 18 19 25 27 29 32 33 34 35 36 40 44 45 48 49 50 53 56 57 60 61 63 64 67 69 72 74 75 78 83 84 85 87 90 91 96 98
7 9 11 19 21 23 24 25 27 34 36 38 39 40 42 43 45 50 53 56 58 59 62 64 67 70 71 72 73 75 78 79 81 82 83 85 86 90 91 95
2 3 6 7 8 13 14 15 17 19 23 29 30 31 33 35 37 41 44 45 47 48 53 55 56 57 58 62 67 72 73 76 77 81 82 84 87 91 93
3 5 6 9 12 13 14 15 19 20 21 22 24 25 27 30 33 34 35 36 38 40 41 42 43 45 46 50 56 57 61 63 64 65 66 73 76 82 83 92 93 94 95
